(set-logic HORN)
(declare-fun assign_166_22_5_abs0 (Int Int Int Int) Bool)
(declare-fun assert_157_21_5_abs0 (Int Int Int Int) Bool)
(declare-fun assert_142_20_12_abs0 (Int Int Int Int) Bool)
(declare-fun while_169_19_1_abs0 (Int Int Int Int) Bool)
(declare-fun assign_107_18_1_abs0 (Int Int Int Int) Bool)
(declare-fun assign_101_17_1_abs0 (Int Int Int Int) Bool)
(declare-fun assign_92_15_5_abs0 (Int Int Int Int) Bool)
(declare-fun assert_83_14_12_abs0 (Int Int Int Int) Bool)
(declare-fun while_95_13_1_abs0 (Int Int Int Int) Bool)
(declare-fun assign_39_12_1_abs0 (Int Int Int Int) Bool)
(declare-fun end_abs0 (Int Int Int Int) Bool)
(declare-fun start_abs0 (Int Int Int Int) Bool)
(assert (forall ((l Int) (i Int) (vabs_f_f Int) (source_select Int)) (start_abs0 vabs_f_f source_select l i)))
(assert (forall ((i Int) (l Int) (vabs_0_f_f Int) (source_select Int)) (=> (start_abs0 vabs_0_f_f source_select l i) (assign_39_12_1_abs0 vabs_0_f_f source_select l i))))
(assert (forall ((i Int) (l Int) (vabs_0_f_f Int) (source_select Int)) (=> (assign_39_12_1_abs0 vabs_0_f_f source_select l i) (while_95_13_1_abs0 vabs_0_f_f source_select l 0))))
(assert (forall ((l Int) (i Int) (vabs_0_f_f Int) (source_select_0 Int) (source_select Int)) (=> (and (=> (= vabs_0_f_f i) (= source_select source_select_0)) (while_95_13_1_abs0 i source_select l i) (while_95_13_1_abs0 vabs_0_f_f source_select_0 l i) (not (= source_select 0))) (assert_83_14_12_abs0 vabs_0_f_f source_select_0 l i))))
(assert (forall ((l Int) (i Int) (vabs_0_f_f Int) (source_select_0 Int) (source_select Int)) (=> (and (=> (= vabs_0_f_f i) (= source_select source_select_0)) (while_95_13_1_abs0 i source_select l i) (while_95_13_1_abs0 vabs_0_f_f source_select_0 l i) (not (not (= source_select 0)))) (assign_101_17_1_abs0 vabs_0_f_f source_select_0 l i))))
(assert (forall ((k Int) (i Int) (l Int) (source_select Int)) (=> (and (assert_83_14_12_abs0 k source_select l i) (<= 0 k) (< k i)) (not (= source_select 0)))))
(assert (forall ((i Int) (l Int) (vabs_0_f_f Int) (source_select Int)) (=> (assert_83_14_12_abs0 vabs_0_f_f source_select l i) (assign_92_15_5_abs0 vabs_0_f_f source_select l i))))
(assert (forall ((i Int) (l Int) (vabs_0_f_f Int) (source_select Int)) (=> (assign_92_15_5_abs0 vabs_0_f_f source_select l i) (while_95_13_1_abs0 vabs_0_f_f source_select l (+ i 1)))))
(assert (forall ((i Int) (l Int) (vabs_0_f_f Int) (source_select Int)) (=> (assign_101_17_1_abs0 vabs_0_f_f source_select l i) (assign_107_18_1_abs0 vabs_0_f_f source_select i i))))
(assert (forall ((i Int) (l Int) (vabs_0_f_f Int) (source_select Int)) (=> (assign_107_18_1_abs0 vabs_0_f_f source_select l i) (while_169_19_1_abs0 vabs_0_f_f source_select l 0))))
(assert (forall ((l Int) (i Int) (vabs_0_f_f Int) (source_select Int)) (=> (and (while_169_19_1_abs0 vabs_0_f_f source_select l i) (< i l)) (assert_142_20_12_abs0 vabs_0_f_f source_select l i))))
(assert (forall ((l Int) (i Int) (vabs_0_f_f Int) (source_select Int)) (=> (and (while_169_19_1_abs0 vabs_0_f_f source_select l i) (not (< i l))) (end_abs0 vabs_0_f_f source_select l i))))
(assert (forall ((k Int) (i Int) (l Int) (source_select Int)) (=> (and (assert_142_20_12_abs0 k source_select l i) (<= 0 k) (< k l)) (not (= source_select 0)))))
(assert (forall ((i Int) (l Int) (vabs_0_f_f Int) (source_select Int)) (=> (assert_142_20_12_abs0 vabs_0_f_f source_select l i) (assert_157_21_5_abs0 vabs_0_f_f source_select l i))))
(assert (forall ((i Int) (l Int) (source_select Int)) (=> (assert_157_21_5_abs0 i source_select l i) (not (= source_select 0)))))
(assert (forall ((i Int) (l Int) (vabs_0_f_f Int) (source_select Int)) (=> (assert_157_21_5_abs0 vabs_0_f_f source_select l i) (assign_166_22_5_abs0 vabs_0_f_f source_select l i))))
(assert (forall ((i Int) (l Int) (vabs_0_f_f Int) (source_select Int)) (=> (assign_166_22_5_abs0 vabs_0_f_f source_select l i) (while_169_19_1_abs0 vabs_0_f_f source_select l (+ i 1)))))
(check-sat)